<instance format="XCSP3" type="COP">
  <variables>
    <array id="emetteurs" note="Définition des variables du problème" size="[50]"> 14 28 42 56 70 84 98 112 126 140 154 168 182 196 210 224 238 252 266 280 294 308 322 336 350 364 378 392 406 420 434 448 462 476 490 504 518 532 546 560 574 588 602 616 630 644 658 672 686 700 714 728 </array>
    <array id="recepteurs" size="[50]" as="emetteurs"/>
    <array id="aux_gb" note="aux_gb[i] is the ith auxiliary variable having been automatically introduced" size="[16]">
      <domain for="aux_gb[0..3] aux_gb[8..9] aux_gb[12..13]"> 1..7 </domain>
      <domain for="aux_gb[4] aux_gb[5]"> 1..6 </domain>
      <domain for="aux_gb[6..7] aux_gb[10..11]"> 1..8 </domain>
      <domain for="aux_gb[14] aux_gb[15]"> 14 28 42 56 70 84 98 112 126 140 154 168 182 196 210 224 238 252 266 280 294 308 322 336 350 364 378 392 406 420 434 448 462 476 490 504 518 532 546 560 574 588 602 616 630 644 658 672 686 700 714 728 </domain>
    </array>
  </variables>
  <constraints>
    <group note="distance entre fréquence émettrice et réceptrice d'une station">
      <intension> eq(dist(%0,%1),238) </intension>
      <args> emetteurs[0] recepteurs[0] </args>
      <args> emetteurs[1] recepteurs[1] </args>
      <args> emetteurs[2] recepteurs[2] </args>
      <args> emetteurs[3] recepteurs[3] </args>
      <args> emetteurs[4] recepteurs[4] </args>
      <args> emetteurs[5] recepteurs[5] </args>
      <args> emetteurs[6] recepteurs[6] </args>
      <args> emetteurs[7] recepteurs[7] </args>
      <args> emetteurs[8] recepteurs[8] </args>
      <args> emetteurs[9] recepteurs[9] </args>
      <args> emetteurs[10] recepteurs[10] </args>
      <args> emetteurs[11] recepteurs[11] </args>
      <args> emetteurs[12] recepteurs[12] </args>
      <args> emetteurs[13] recepteurs[13] </args>
      <args> emetteurs[14] recepteurs[14] </args>
      <args> emetteurs[15] recepteurs[15] </args>
      <args> emetteurs[16] recepteurs[16] </args>
      <args> emetteurs[17] recepteurs[17] </args>
      <args> emetteurs[18] recepteurs[18] </args>
      <args> emetteurs[19] recepteurs[19] </args>
      <args> emetteurs[20] recepteurs[20] </args>
      <args> emetteurs[21] recepteurs[21] </args>
      <args> emetteurs[22] recepteurs[22] </args>
      <args> emetteurs[23] recepteurs[23] </args>
      <args> emetteurs[24] recepteurs[24] </args>
      <args> emetteurs[25] recepteurs[25] </args>
      <args> emetteurs[26] recepteurs[26] </args>
      <args> emetteurs[27] recepteurs[27] </args>
      <args> emetteurs[28] recepteurs[28] </args>
      <args> emetteurs[29] recepteurs[29] </args>
      <args> emetteurs[30] recepteurs[30] </args>
      <args> emetteurs[31] recepteurs[31] </args>
      <args> emetteurs[32] recepteurs[32] </args>
      <args> emetteurs[33] recepteurs[33] </args>
      <args> emetteurs[34] recepteurs[34] </args>
      <args> emetteurs[35] recepteurs[35] </args>
      <args> emetteurs[36] recepteurs[36] </args>
      <args> emetteurs[37] recepteurs[37] </args>
      <args> emetteurs[38] recepteurs[38] </args>
      <args> emetteurs[39] recepteurs[39] </args>
      <args> emetteurs[40] recepteurs[40] </args>
      <args> emetteurs[41] recepteurs[41] </args>
      <args> emetteurs[42] recepteurs[42] </args>
      <args> emetteurs[43] recepteurs[43] </args>
      <args> emetteurs[44] recepteurs[44] </args>
      <args> emetteurs[45] recepteurs[45] </args>
      <args> emetteurs[46] recepteurs[46] </args>
      <args> emetteurs[47] recepteurs[47] </args>
      <args> emetteurs[48] recepteurs[48] </args>
      <args> emetteurs[49] recepteurs[49] </args>
    </group>
    <group note="distance entre fréquence de station proche">
      <intension> and(ge(dist(%0,%1),%2),ge(dist(%3,%4),%2)) </intension>
      <args> emetteurs[0] emetteurs[7] 30 recepteurs[0] recepteurs[7] </args>
      <args> emetteurs[0] emetteurs[18] 20 recepteurs[0] recepteurs[18] </args>
      <args> emetteurs[0] emetteurs[36] 20 recepteurs[0] recepteurs[36] </args>
      <args> emetteurs[0] emetteurs[35] 30 recepteurs[0] recepteurs[35] </args>
      <args> emetteurs[0] emetteurs[31] 40 recepteurs[0] recepteurs[31] </args>
      <args> emetteurs[1] emetteurs[22] 30 recepteurs[1] recepteurs[22] </args>
      <args> emetteurs[1] emetteurs[19] 30 recepteurs[1] recepteurs[19] </args>
      <args> emetteurs[2] emetteurs[11] 40 recepteurs[2] recepteurs[11] </args>
      <args> emetteurs[2] emetteurs[26] 20 recepteurs[2] recepteurs[26] </args>
      <args> emetteurs[3] emetteurs[5] 50 recepteurs[3] recepteurs[5] </args>
      <args> emetteurs[3] emetteurs[44] 30 recepteurs[3] recepteurs[44] </args>
      <args> emetteurs[3] emetteurs[6] 30 recepteurs[3] recepteurs[6] </args>
      <args> emetteurs[4] emetteurs[7] 50 recepteurs[4] recepteurs[7] </args>
      <args> emetteurs[5] emetteurs[10] 30 recepteurs[5] recepteurs[10] </args>
      <args> emetteurs[6] emetteurs[30] 50 recepteurs[6] recepteurs[30] </args>
      <args> emetteurs[6] emetteurs[24] 30 recepteurs[6] recepteurs[24] </args>
      <args> emetteurs[6] emetteurs[22] 50 recepteurs[6] recepteurs[22] </args>
      <args> emetteurs[6] emetteurs[12] 40 recepteurs[6] recepteurs[12] </args>
      <args> emetteurs[6] emetteurs[29] 50 recepteurs[6] recepteurs[29] </args>
      <args> emetteurs[6] emetteurs[46] 20 recepteurs[6] recepteurs[46] </args>
      <args> emetteurs[6] emetteurs[37] 30 recepteurs[6] recepteurs[37] </args>
      <args> emetteurs[6] emetteurs[13] 50 recepteurs[6] recepteurs[13] </args>
      <args> emetteurs[6] emetteurs[11] 40 recepteurs[6] recepteurs[11] </args>
      <args> emetteurs[7] emetteurs[35] 50 recepteurs[7] recepteurs[35] </args>
      <args> emetteurs[8] emetteurs[45] 20 recepteurs[8] recepteurs[45] </args>
      <args> emetteurs[9] emetteurs[23] 20 recepteurs[9] recepteurs[23] </args>
      <args> emetteurs[10] emetteurs[16] 40 recepteurs[10] recepteurs[16] </args>
      <args> emetteurs[10] emetteurs[11] 30 recepteurs[10] recepteurs[11] </args>
      <args> emetteurs[12] emetteurs[35] 30 recepteurs[12] recepteurs[35] </args>
      <args> emetteurs[13] emetteurs[26] 30 recepteurs[13] recepteurs[26] </args>
      <args> emetteurs[13] emetteurs[35] 20 recepteurs[13] recepteurs[35] </args>
      <args> emetteurs[14] emetteurs[49] 50 recepteurs[14] recepteurs[49] </args>
      <args> emetteurs[15] emetteurs[21] 40 recepteurs[15] recepteurs[21] </args>
      <args> emetteurs[15] emetteurs[20] 30 recepteurs[15] recepteurs[20] </args>
      <args> emetteurs[16] emetteurs[28] 40 recepteurs[16] recepteurs[28] </args>
      <args> emetteurs[16] emetteurs[48] 40 recepteurs[16] recepteurs[48] </args>
      <args> emetteurs[17] emetteurs[39] 30 recepteurs[17] recepteurs[39] </args>
      <args> emetteurs[17] emetteurs[35] 20 recepteurs[17] recepteurs[35] </args>
      <args> emetteurs[18] emetteurs[21] 20 recepteurs[18] recepteurs[21] </args>
      <args> emetteurs[18] emetteurs[36] 50 recepteurs[18] recepteurs[36] </args>
      <args> emetteurs[19] emetteurs[45] 30 recepteurs[19] recepteurs[45] </args>
      <args> emetteurs[19] emetteurs[38] 20 recepteurs[19] recepteurs[38] </args>
      <args> emetteurs[19] emetteurs[25] 50 recepteurs[19] recepteurs[25] </args>
      <args> emetteurs[19] emetteurs[46] 30 recepteurs[19] recepteurs[46] </args>
      <args> emetteurs[22] emetteurs[24] 30 recepteurs[22] recepteurs[24] </args>
      <args> emetteurs[22] emetteurs[49] 50 recepteurs[22] recepteurs[49] </args>
      <args> emetteurs[22] emetteurs[27] 20 recepteurs[22] recepteurs[27] </args>
      <args> emetteurs[23] emetteurs[34] 40 recepteurs[23] recepteurs[34] </args>
      <args> emetteurs[23] emetteurs[47] 20 recepteurs[23] recepteurs[47] </args>
      <args> emetteurs[23] emetteurs[44] 40 recepteurs[23] recepteurs[44] </args>
      <args> emetteurs[24] emetteurs[32] 50 recepteurs[24] recepteurs[32] </args>
      <args> emetteurs[25] emetteurs[39] 20 recepteurs[25] recepteurs[39] </args>
      <args> emetteurs[27] emetteurs[40] 40 recepteurs[27] recepteurs[40] </args>
      <args> emetteurs[27] emetteurs[33] 50 recepteurs[27] recepteurs[33] </args>
      <args> emetteurs[27] emetteurs[29] 30 recepteurs[27] recepteurs[29] </args>
      <args> emetteurs[35] emetteurs[43] 40 recepteurs[35] recepteurs[43] </args>
      <args> emetteurs[41] emetteurs[47] 30 recepteurs[41] recepteurs[47] </args>
      <args> emetteurs[43] emetteurs[46] 40 recepteurs[43] recepteurs[46] </args>
    </group>
    <group note="limiter le nombre de fréquences utilisé par station">
      <intension> le(add(%0,%1),%2) </intension>
      <args> aux_gb[0] aux_gb[1] 13 </args>
      <args> aux_gb[2] aux_gb[3] 13 </args>
      <args> aux_gb[4] aux_gb[5] 12 </args>
      <args> aux_gb[6] aux_gb[7] 15 </args>
      <args> aux_gb[8] aux_gb[9] 14 </args>
      <args> aux_gb[10] aux_gb[11] 14 </args>
      <args> aux_gb[12] aux_gb[13] 14 </args>
    </group>
    <group note="liaisons entre fréquences émettrices et réceptrices">
      <intension> eq(%0,%1) </intension>
      <args> emetteurs[0] recepteurs[4] </args>
      <args> emetteurs[5] recepteurs[48] </args>
      <args> emetteurs[15] recepteurs[19] </args>
      <args> emetteurs[19] recepteurs[42] </args>
      <args> emetteurs[27] recepteurs[39] </args>
    </group>
    <group>
      <intension> eq(%0,%1) </intension>
      <args> emetteurs[4] recepteurs[0] </args>
      <args> emetteurs[48] recepteurs[5] </args>
      <args> emetteurs[19] recepteurs[15] </args>
      <args> emetteurs[42] recepteurs[19] </args>
      <args> emetteurs[39] recepteurs[27] </args>
    </group>
    <group>
      <nValues>
        <list> %... </list>
        <condition> (eq,%0) </condition>
      </nValues>
      <args> aux_gb[0] emetteurs[6] emetteurs[13] emetteurs[15] emetteurs[20] emetteurs[26] emetteurs[36..37] </args>
      <args> aux_gb[1] recepteurs[6] recepteurs[13] recepteurs[15] recepteurs[20] recepteurs[26] recepteurs[36..37] </args>
      <args> aux_gb[2] emetteurs[8] emetteurs[24] emetteurs[30] emetteurs[32] emetteurs[38] emetteurs[42] emetteurs[45] </args>
      <args> aux_gb[3] recepteurs[8] recepteurs[24] recepteurs[30] recepteurs[32] recepteurs[38] recepteurs[42] recepteurs[45] </args>
      <args> aux_gb[4] emetteurs[0] emetteurs[3..4] emetteurs[7] emetteurs[18] emetteurs[21] </args>
      <args> aux_gb[5] recepteurs[0] recepteurs[3..4] recepteurs[7] recepteurs[18] recepteurs[21] </args>
      <args> aux_gb[6] emetteurs[1] emetteurs[14] emetteurs[22] emetteurs[25] emetteurs[27] emetteurs[33] emetteurs[40] emetteurs[49] </args>
      <args> aux_gb[7] recepteurs[1] recepteurs[14] recepteurs[22] recepteurs[25] recepteurs[27] recepteurs[33] recepteurs[40] recepteurs[49] </args>
      <args> aux_gb[8] emetteurs[9] emetteurs[23] emetteurs[34..35] emetteurs[41] emetteurs[44] emetteurs[47] </args>
      <args> aux_gb[9] recepteurs[9] recepteurs[23] recepteurs[34..35] recepteurs[41] recepteurs[44] recepteurs[47] </args>
      <args> aux_gb[10] emetteurs[2] emetteurs[5] emetteurs[10..11] emetteurs[16] emetteurs[28] emetteurs[31] emetteurs[48] </args>
      <args> aux_gb[11] recepteurs[2] recepteurs[5] recepteurs[10..11] recepteurs[16] recepteurs[28] recepteurs[31] recepteurs[48] </args>
      <args> aux_gb[12] emetteurs[12] emetteurs[17] emetteurs[19] emetteurs[29] emetteurs[39] emetteurs[43] emetteurs[46] </args>
      <args> aux_gb[13] recepteurs[12] recepteurs[17] recepteurs[19] recepteurs[29] recepteurs[39] recepteurs[43] recepteurs[46] </args>
    </group>
    <maximum>
      <list> emetteurs[] recepteurs[] </list>
      <condition> (eq,aux_gb[14]) </condition>
    </maximum>
    <minimum>
      <list> emetteurs[] recepteurs[] </list>
      <condition> (eq,aux_gb[15]) </condition>
    </minimum>
  </constraints>
  <objectives>
    <minimize> dist(aux_gb[14],aux_gb[15]) </minimize>
  </objectives>
</instance>
